52 31 88 62 63 64 11 19 7 82 83 95 87 2 41 22 23 67 39 25 55 24 29 78 81 51 70 10 48 8 84 93 91 100 37 97 13 58 
27 69 30 65 71 9 33 79 3 77 76 12 28 
89 18 60 5 99 96 94 
6 59 92 98 85 61 86 38 14 42 57 15 43 44 16 17 45 46 47 36 49 90 32 20 66 35 34 50 1 
53 40 21 73 72 74 75 56 4 54 80 68 26 
